c n orig vars 104
p cnf 106 314
1 2 -105 0
3 4 -105 0
5 6 -105 0
7 8 -105 0
9 10 -105 0
11 12 -105 0
13 14 -105 0
15 16 -105 0
17 18 -105 0
19 20 -105 0
21 22 -105 0
23 24 -105 0
25 26 -105 0
27 28 -105 0
29 30 -105 0
31 32 -105 0
33 42 51 60 69 78 87 96 -106 0
34 43 52 61 70 79 88 97 -106 0
35 44 53 62 71 80 89 98 -106 0
36 45 54 63 72 81 90 99 -106 0
37 46 55 64 73 82 91 100 -106 0
38 47 56 65 74 83 92 101 -106 0
39 48 57 66 75 84 93 102 -106 0
40 49 58 67 76 85 94 103 -106 0
41 50 59 68 77 86 95 104 -106 0
-33 -34 -106 0
-33 -35 -106 0
-33 -36 -106 0
-33 -37 -106 0
-33 -38 -106 0
-33 -39 -106 0
-33 -40 -106 0
-33 -41 -106 0
-34 -35 -106 0
-34 -36 -106 0
-34 -37 -106 0
-34 -38 -106 0
-34 -39 -106 0
-34 -40 -106 0
-34 -41 -106 0
-35 -36 -106 0
-35 -37 -106 0
-35 -38 -106 0
-35 -39 -106 0
-35 -40 -106 0
-35 -41 -106 0
-36 -37 -106 0
-36 -38 -106 0
-36 -39 -106 0
-36 -40 -106 0
-36 -41 -106 0
-37 -38 -106 0
-37 -39 -106 0
-37 -40 -106 0
-37 -41 -106 0
-38 -39 -106 0
-38 -40 -106 0
-38 -41 -106 0
-39 -40 -106 0
-39 -41 -106 0
-40 -41 -106 0
-42 -43 -106 0
-42 -44 -106 0
-42 -45 -106 0
-42 -46 -106 0
-42 -47 -106 0
-42 -48 -106 0
-42 -49 -106 0
-42 -50 -106 0
-43 -44 -106 0
-43 -45 -106 0
-43 -46 -106 0
-43 -47 -106 0
-43 -48 -106 0
-43 -49 -106 0
-43 -50 -106 0
-44 -45 -106 0
-44 -46 -106 0
-44 -47 -106 0
-44 -48 -106 0
-44 -49 -106 0
-44 -50 -106 0
-45 -46 -106 0
-45 -47 -106 0
-45 -48 -106 0
-45 -49 -106 0
-45 -50 -106 0
-46 -47 -106 0
-46 -48 -106 0
-46 -49 -106 0
-46 -50 -106 0
-47 -48 -106 0
-47 -49 -106 0
-47 -50 -106 0
-48 -49 -106 0
-48 -50 -106 0
-49 -50 -106 0
-51 -52 -106 0
-51 -53 -106 0
-51 -54 -106 0
-51 -55 -106 0
-51 -56 -106 0
-51 -57 -106 0
-51 -58 -106 0
-51 -59 -106 0
-52 -53 -106 0
-52 -54 -106 0
-52 -55 -106 0
-52 -56 -106 0
-52 -57 -106 0
-52 -58 -106 0
-52 -59 -106 0
-53 -54 -106 0
-53 -55 -106 0
-53 -56 -106 0
-53 -57 -106 0
-53 -58 -106 0
-53 -59 -106 0
-54 -55 -106 0
-54 -56 -106 0
-54 -57 -106 0
-54 -58 -106 0
-54 -59 -106 0
-55 -56 -106 0
-55 -57 -106 0
-55 -58 -106 0
-55 -59 -106 0
-56 -57 -106 0
-56 -58 -106 0
-56 -59 -106 0
-57 -58 -106 0
-57 -59 -106 0
-58 -59 -106 0
-60 -61 -106 0
-60 -62 -106 0
-60 -63 -106 0
-60 -64 -106 0
-60 -65 -106 0
-60 -66 -106 0
-60 -67 -106 0
-60 -68 -106 0
-61 -62 -106 0
-61 -63 -106 0
-61 -64 -106 0
-61 -65 -106 0
-61 -66 -106 0
-61 -67 -106 0
-61 -68 -106 0
-62 -63 -106 0
-62 -64 -106 0
-62 -65 -106 0
-62 -66 -106 0
-62 -67 -106 0
-62 -68 -106 0
-63 -64 -106 0
-63 -65 -106 0
-63 -66 -106 0
-63 -67 -106 0
-63 -68 -106 0
-64 -65 -106 0
-64 -66 -106 0
-64 -67 -106 0
-64 -68 -106 0
-65 -66 -106 0
-65 -67 -106 0
-65 -68 -106 0
-66 -67 -106 0
-66 -68 -106 0
-67 -68 -106 0
-69 -70 -106 0
-69 -71 -106 0
-69 -72 -106 0
-69 -73 -106 0
-69 -74 -106 0
-69 -75 -106 0
-69 -76 -106 0
-69 -77 -106 0
-70 -71 -106 0
-70 -72 -106 0
-70 -73 -106 0
-70 -74 -106 0
-70 -75 -106 0
-70 -76 -106 0
-70 -77 -106 0
-71 -72 -106 0
-71 -73 -106 0
-71 -74 -106 0
-71 -75 -106 0
-71 -76 -106 0
-71 -77 -106 0
-72 -73 -106 0
-72 -74 -106 0
-72 -75 -106 0
-72 -76 -106 0
-72 -77 -106 0
-73 -74 -106 0
-73 -75 -106 0
-73 -76 -106 0
-73 -77 -106 0
-74 -75 -106 0
-74 -76 -106 0
-74 -77 -106 0
-75 -76 -106 0
-75 -77 -106 0
-76 -77 -106 0
-78 -79 -106 0
-78 -80 -106 0
-78 -81 -106 0
-78 -82 -106 0
-78 -83 -106 0
-78 -84 -106 0
-78 -85 -106 0
-78 -86 -106 0
-79 -80 -106 0
-79 -81 -106 0
-79 -82 -106 0
-79 -83 -106 0
-79 -84 -106 0
-79 -85 -106 0
-79 -86 -106 0
-80 -81 -106 0
-80 -82 -106 0
-80 -83 -106 0
-80 -84 -106 0
-80 -85 -106 0
-80 -86 -106 0
-81 -82 -106 0
-81 -83 -106 0
-81 -84 -106 0
-81 -85 -106 0
-81 -86 -106 0
-82 -83 -106 0
-82 -84 -106 0
-82 -85 -106 0
-82 -86 -106 0
-83 -84 -106 0
-83 -85 -106 0
-83 -86 -106 0
-84 -85 -106 0
-84 -86 -106 0
-85 -86 -106 0
-87 -88 -106 0
-87 -89 -106 0
-87 -90 -106 0
-87 -91 -106 0
-87 -92 -106 0
-87 -93 -106 0
-87 -94 -106 0
-87 -95 -106 0
-88 -89 -106 0
-88 -90 -106 0
-88 -91 -106 0
-88 -92 -106 0
-88 -93 -106 0
-88 -94 -106 0
-88 -95 -106 0
-89 -90 -106 0
-89 -91 -106 0
-89 -92 -106 0
-89 -93 -106 0
-89 -94 -106 0
-89 -95 -106 0
-90 -91 -106 0
-90 -92 -106 0
-90 -93 -106 0
-90 -94 -106 0
-90 -95 -106 0
-91 -92 -106 0
-91 -93 -106 0
-91 -94 -106 0
-91 -95 -106 0
-92 -93 -106 0
-92 -94 -106 0
-92 -95 -106 0
-93 -94 -106 0
-93 -95 -106 0
-94 -95 -106 0
-96 -97 -106 0
-96 -98 -106 0
-96 -99 -106 0
-96 -100 -106 0
-96 -101 -106 0
-96 -102 -106 0
-96 -103 -106 0
-96 -104 -106 0
-97 -98 -106 0
-97 -99 -106 0
-97 -100 -106 0
-97 -101 -106 0
-97 -102 -106 0
-97 -103 -106 0
-97 -104 -106 0
-98 -99 -106 0
-98 -100 -106 0
-98 -101 -106 0
-98 -102 -106 0
-98 -103 -106 0
-98 -104 -106 0
-99 -100 -106 0
-99 -101 -106 0
-99 -102 -106 0
-99 -103 -106 0
-99 -104 -106 0
-100 -101 -106 0
-100 -102 -106 0
-100 -103 -106 0
-100 -104 -106 0
-101 -102 -106 0
-101 -103 -106 0
-101 -104 -106 0
-102 -103 -106 0
-102 -104 -106 0
-103 -104 -106 0
105 106 0
